
Gurobi 6.5.2 (win64) logging started 11/03/16 20:41:43


Gurobi 6.5.2 (win64) logging started 11/03/16 20:42:14

Optimize a model with 1110 rows, 11000 columns and 22000 nonzeros
Coefficient statistics:
  Matrix range    [1e+00, 1e+00]
  Objective range [2e+02, 1e+03]
  Bounds range    [1e+00, 1e+00]
  RHS range       [3e+01, 1e+04]
Presolve removed 10 rows and 0 columns
Presolve time: 0.00s

Explored 0 nodes (0 simplex iterations) in 0.02 seconds
Thread count was 1 (of 4 available processors)

Model is infeasible
Best objective -, best bound -, gap -

Gurobi 6.5.2 (win64) logging started 11/03/16 20:43:11

Optimize a model with 1110 rows, 11000 columns and 22000 nonzeros
Coefficient statistics:
  Matrix range    [1e+00, 1e+00]
  Objective range [2e+02, 1e+03]
  Bounds range    [0e+00, 0e+00]
  RHS range       [3e+01, 1e+04]
Found heuristic solution: objective 6.39107e+07
Presolve time: 0.02s
Presolved: 1110 rows, 11000 columns, 22000 nonzeros
Variable types: 0 continuous, 11000 integer (0 binary)

Root relaxation: objective 3.004488e+07, 992 iterations, 0.01 seconds

    Nodes    |    Current Node    |     Objective Bounds      |     Work
 Expl Unexpl |  Obj  Depth IntInf | Incumbent    BestBd   Gap | It/Node Time

*    0     0               0    3.004488e+07 3.0045e+07  0.00%     -    0s

Explored 0 nodes (992 simplex iterations) in 0.06 seconds
Thread count was 4 (of 4 available processors)

Optimal solution found (tolerance 1.00e-04)
Best objective 3.004488028505e+07, best bound 3.004488028505e+07, gap 0.0000%

Gurobi 6.5.2 (win64) logging started 11/03/16 20:44:13

Optimize a model with 1110 rows, 11000 columns and 22000 nonzeros
Coefficient statistics:
  Matrix range    [1e+00, 1e+00]
  Objective range [2e+02, 1e+03]
  Bounds range    [0e+00, 0e+00]
  RHS range       [3e+01, 1e+04]
Found heuristic solution: objective 6.39107e+07
Presolve time: 0.02s
Presolved: 1110 rows, 11000 columns, 22000 nonzeros
Variable types: 0 continuous, 11000 integer (0 binary)

Root relaxation: objective 3.004488e+07, 992 iterations, 0.01 seconds

    Nodes    |    Current Node    |     Objective Bounds      |     Work
 Expl Unexpl |  Obj  Depth IntInf | Incumbent    BestBd   Gap | It/Node Time

*    0     0               0    3.004488e+07 3.0045e+07  0.00%     -    0s

Explored 0 nodes (992 simplex iterations) in 0.04 seconds
Thread count was 4 (of 4 available processors)

Optimal solution found (tolerance 1.00e-04)
Best objective 3.004488028505e+07, best bound 3.004488028505e+07, gap 0.0000%

Gurobi 6.5.2 (win64) logging started 11/03/16 20:47:56

Optimize a model with 1110 rows, 11000 columns and 22000 nonzeros
Coefficient statistics:
  Matrix range    [1e+00, 1e+00]
  Objective range [2e+02, 1e+03]
  Bounds range    [0e+00, 0e+00]
  RHS range       [3e+01, 1e+04]
Found heuristic solution: objective 6.39107e+07
Presolve time: 0.02s
Presolved: 1110 rows, 11000 columns, 22000 nonzeros
Variable types: 0 continuous, 11000 integer (0 binary)

Root relaxation: objective 3.004488e+07, 992 iterations, 0.00 seconds

    Nodes    |    Current Node    |     Objective Bounds      |     Work
 Expl Unexpl |  Obj  Depth IntInf | Incumbent    BestBd   Gap | It/Node Time

*    0     0               0    3.004488e+07 3.0045e+07  0.00%     -    0s

Explored 0 nodes (992 simplex iterations) in 0.04 seconds
Thread count was 4 (of 4 available processors)

Optimal solution found (tolerance 1.00e-04)
Best objective 3.004488028505e+07, best bound 3.004488028505e+07, gap 0.0000%

Gurobi 6.5.2 (win64) logging started 11/03/16 20:49:05

Optimize a model with 1110 rows, 11000 columns and 22000 nonzeros
Coefficient statistics:
  Matrix range    [1e+00, 1e+00]
  Objective range [2e+02, 1e+03]
  Bounds range    [0e+00, 0e+00]
  RHS range       [3e+01, 1e+04]
Found heuristic solution: objective 6.39107e+07
Presolve time: 0.02s
Presolved: 1110 rows, 11000 columns, 22000 nonzeros
Variable types: 0 continuous, 11000 integer (0 binary)

Root relaxation: objective 3.004488e+07, 992 iterations, 0.01 seconds

    Nodes    |    Current Node    |     Objective Bounds      |     Work
 Expl Unexpl |  Obj  Depth IntInf | Incumbent    BestBd   Gap | It/Node Time

*    0     0               0    3.004488e+07 3.0045e+07  0.00%     -    0s

Explored 0 nodes (992 simplex iterations) in 0.04 seconds
Thread count was 4 (of 4 available processors)

Optimal solution found (tolerance 1.00e-04)
Best objective 3.004488028505e+07, best bound 3.004488028505e+07, gap 0.0000%

Gurobi 6.5.2 (win64) logging started 11/03/16 20:59:09

Optimize a model with 1110 rows, 11000 columns and 22000 nonzeros
Coefficient statistics:
  Matrix range    [1e+00, 1e+00]
  Objective range [2e+02, 1e+03]
  Bounds range    [0e+00, 0e+00]
  RHS range       [3e+01, 1e+04]
Found heuristic solution: objective 6.39107e+07
Presolve time: 0.02s
Presolved: 1110 rows, 11000 columns, 22000 nonzeros
Variable types: 0 continuous, 11000 integer (0 binary)

Root relaxation: objective 3.004488e+07, 992 iterations, 0.01 seconds

    Nodes    |    Current Node    |     Objective Bounds      |     Work
 Expl Unexpl |  Obj  Depth IntInf | Incumbent    BestBd   Gap | It/Node Time

*    0     0               0    3.004488e+07 3.0045e+07  0.00%     -    0s

Explored 0 nodes (992 simplex iterations) in 0.04 seconds
Thread count was 4 (of 4 available processors)

Optimal solution found (tolerance 1.00e-04)
Best objective 3.004488028505e+07, best bound 3.004488028505e+07, gap 0.0000%

Gurobi 6.5.2 (win64) logging started 11/03/16 21:03:58

Optimize a model with 1110 rows, 11000 columns and 22000 nonzeros
Coefficient statistics:
  Matrix range    [1e+00, 1e+00]
  Objective range [2e+02, 1e+03]
  Bounds range    [0e+00, 0e+00]
  RHS range       [3e+01, 1e+04]
Found heuristic solution: objective 6.39107e+07
Presolve time: 0.01s
Presolved: 1110 rows, 11000 columns, 22000 nonzeros
Variable types: 0 continuous, 11000 integer (0 binary)

Root relaxation: objective 3.004488e+07, 992 iterations, 0.01 seconds

    Nodes    |    Current Node    |     Objective Bounds      |     Work
 Expl Unexpl |  Obj  Depth IntInf | Incumbent    BestBd   Gap | It/Node Time

*    0     0               0    3.004488e+07 3.0045e+07  0.00%     -    0s

Explored 0 nodes (992 simplex iterations) in 0.03 seconds
Thread count was 4 (of 4 available processors)

Optimal solution found (tolerance 1.00e-04)
Best objective 3.004488028505e+07, best bound 3.004488028505e+07, gap 0.0000%

Gurobi 6.5.2 (win64) logging started 11/03/16 21:10:55


Gurobi 6.5.2 (win64) logging started 11/03/16 21:12:43

Optimize a model with 1110 rows, 11000 columns and 22000 nonzeros
Coefficient statistics:
  Matrix range    [1e+00, 3e+02]
  Objective range [2e+02, 1e+03]
  Bounds range    [1e+00, 1e+00]
  RHS range       [1e+00, 1e+04]
Found heuristic solution: objective 639274
Presolve time: 0.04s
Presolved: 1110 rows, 11000 columns, 22000 nonzeros
Variable types: 0 continuous, 11000 integer (11000 binary)

Root relaxation: objective 2.993609e+05, 1103 iterations, 0.01 seconds

    Nodes    |    Current Node    |     Objective Bounds      |     Work
 Expl Unexpl |  Obj  Depth IntInf | Incumbent    BestBd   Gap | It/Node Time

     0     0 299360.935    0    4 639273.554 299360.935  53.2%     -    0s
H    0     0                    299405.37942 299360.935  0.01%     -    0s
H    0     0                    299362.17621 299360.935  0.00%     -    0s

Explored 0 nodes (1103 simplex iterations) in 0.08 seconds
Thread count was 4 (of 4 available processors)

Optimal solution found (tolerance 1.00e-04)
Best objective 2.993621762053e+05, best bound 2.993609348906e+05, gap 0.0004%

Gurobi 6.5.2 (win64) logging started 11/03/16 22:05:13


Gurobi 6.5.2 (win64) logging started 11/03/16 22:06:11


Gurobi 6.5.2 (win64) logging started 11/03/16 22:06:54

Optimize a model with 1110 rows, 3300 columns and 6600 nonzeros
Coefficient statistics:
  Matrix range    [1e+00, 3e+02]
  Objective range [2e+02, 8e+02]
  Bounds range    [1e+00, 1e+00]
  RHS range       [1e+00, 1e+04]
Found heuristic solution: objective 373019
Presolve time: 0.01s
Presolved: 1110 rows, 3300 columns, 6600 nonzeros
Variable types: 0 continuous, 3300 integer (3300 binary)

Root relaxation: objective 2.993609e+05, 1103 iterations, 0.00 seconds

    Nodes    |    Current Node    |     Objective Bounds      |     Work
 Expl Unexpl |  Obj  Depth IntInf | Incumbent    BestBd   Gap | It/Node Time

     0     0 299360.935    0    4 373019.298 299360.935  19.7%     -    0s
H    0     0                    299441.42416 299360.935  0.03%     -    0s
H    0     0                    299362.17621 299360.935  0.00%     -    0s

Explored 0 nodes (1103 simplex iterations) in 0.04 seconds
Thread count was 4 (of 4 available processors)

Optimal solution found (tolerance 1.00e-04)
Best objective 2.993621762053e+05, best bound 2.993609348906e+05, gap 0.0004%

Gurobi 6.5.2 (win64) logging started 11/03/16 22:07:28

Optimize a model with 1110 rows, 3300 columns and 6600 nonzeros
Coefficient statistics:
  Matrix range    [1e+00, 3e+02]
  Objective range [2e+02, 8e+02]
  Bounds range    [1e+00, 1e+00]
  RHS range       [1e+00, 1e+04]
Found heuristic solution: objective 373019
Presolve time: 0.01s
Presolved: 1110 rows, 3300 columns, 6600 nonzeros
Variable types: 0 continuous, 3300 integer (3300 binary)

Root relaxation: objective 2.993609e+05, 1103 iterations, 0.00 seconds

    Nodes    |    Current Node    |     Objective Bounds      |     Work
 Expl Unexpl |  Obj  Depth IntInf | Incumbent    BestBd   Gap | It/Node Time

     0     0 299360.935    0    4 373019.298 299360.935  19.7%     -    0s
H    0     0                    299441.42416 299360.935  0.03%     -    0s
H    0     0                    299362.17621 299360.935  0.00%     -    0s

Explored 0 nodes (1103 simplex iterations) in 0.02 seconds
Thread count was 4 (of 4 available processors)

Optimal solution found (tolerance 1.00e-04)
Best objective 2.993621762053e+05, best bound 2.993609348906e+05, gap 0.0004%

Gurobi 6.5.2 (win64) logging started 11/03/16 22:07:51

Optimize a model with 1110 rows, 4400 columns and 8800 nonzeros
Coefficient statistics:
  Matrix range    [1e+00, 3e+02]
  Objective range [2e+02, 8e+02]
  Bounds range    [1e+00, 1e+00]
  RHS range       [1e+00, 1e+04]
Found heuristic solution: objective 412698
Presolve time: 0.02s
Presolved: 1110 rows, 4400 columns, 8800 nonzeros
Variable types: 0 continuous, 4400 integer (4400 binary)

Root relaxation: objective 2.993609e+05, 1103 iterations, 0.00 seconds

    Nodes    |    Current Node    |     Objective Bounds      |     Work
 Expl Unexpl |  Obj  Depth IntInf | Incumbent    BestBd   Gap | It/Node Time

     0     0 299360.935    0    4 412698.103 299360.935  27.5%     -    0s
H    0     0                    299435.33225 299360.935  0.02%     -    0s
H    0     0                    299362.17621 299360.935  0.00%     -    0s

Explored 0 nodes (1103 simplex iterations) in 0.05 seconds
Thread count was 4 (of 4 available processors)

Optimal solution found (tolerance 1.00e-04)
Best objective 2.993621762053e+05, best bound 2.993609348906e+05, gap 0.0004%

Gurobi 6.5.2 (win64) logging started 11/03/16 22:09:32

Optimize a model with 1110 rows, 11000 columns and 22000 nonzeros
Coefficient statistics:
  Matrix range    [1e+00, 3e+02]
  Objective range [2e+02, 1e+03]
  Bounds range    [1e+00, 1e+00]
  RHS range       [1e+00, 1e+04]
Found heuristic solution: objective 639274
Presolve time: 0.04s
Presolved: 1110 rows, 11000 columns, 22000 nonzeros
Variable types: 0 continuous, 11000 integer (11000 binary)

Root relaxation: objective 2.993609e+05, 1103 iterations, 0.00 seconds

    Nodes    |    Current Node    |     Objective Bounds      |     Work
 Expl Unexpl |  Obj  Depth IntInf | Incumbent    BestBd   Gap | It/Node Time

     0     0 299360.935    0    4 639273.554 299360.935  53.2%     -    0s
H    0     0                    299405.37942 299360.935  0.01%     -    0s
H    0     0                    299362.17621 299360.935  0.00%     -    0s

Explored 0 nodes (1103 simplex iterations) in 0.09 seconds
Thread count was 4 (of 4 available processors)

Optimal solution found (tolerance 1.00e-04)
Best objective 2.993621762053e+05, best bound 2.993609348906e+05, gap 0.0004%

Gurobi 6.5.2 (win64) logging started 11/03/16 22:10:32

Optimize a model with 1110 rows, 11000 columns and 22000 nonzeros
Coefficient statistics:
  Matrix range    [1e+00, 3e+02]
  Objective range [2e+02, 1e+03]
  Bounds range    [1e+00, 1e+00]
  RHS range       [1e+00, 1e+04]
Found heuristic solution: objective 639274
Presolve time: 0.03s
Presolved: 1110 rows, 11000 columns, 22000 nonzeros
Variable types: 0 continuous, 11000 integer (11000 binary)

Root relaxation: objective 2.993609e+05, 1103 iterations, 0.01 seconds

    Nodes    |    Current Node    |     Objective Bounds      |     Work
 Expl Unexpl |  Obj  Depth IntInf | Incumbent    BestBd   Gap | It/Node Time

     0     0 299360.935    0    4 639273.554 299360.935  53.2%     -    0s
H    0     0                    299405.37942 299360.935  0.01%     -    0s
H    0     0                    299362.17621 299360.935  0.00%     -    0s

Explored 0 nodes (1103 simplex iterations) in 0.07 seconds
Thread count was 4 (of 4 available processors)

Optimal solution found (tolerance 1.00e-04)
Best objective 2.993621762053e+05, best bound 2.993609348906e+05, gap 0.0004%

Gurobi 6.5.2 (win64) logging started 11/03/16 22:12:11

Optimize a model with 1110 rows, 11000 columns and 22000 nonzeros
Coefficient statistics:
  Matrix range    [1e+00, 3e+02]
  Objective range [2e+02, 1e+03]
  Bounds range    [1e+00, 1e+00]
  RHS range       [1e+00, 1e+04]
Found heuristic solution: objective 639274
Presolve time: 0.03s
Presolved: 1110 rows, 11000 columns, 22000 nonzeros
Variable types: 0 continuous, 11000 integer (11000 binary)

Root relaxation: objective 2.993609e+05, 1103 iterations, 0.00 seconds

    Nodes    |    Current Node    |     Objective Bounds      |     Work
 Expl Unexpl |  Obj  Depth IntInf | Incumbent    BestBd   Gap | It/Node Time

     0     0 299360.935    0    4 639273.554 299360.935  53.2%     -    0s
H    0     0                    299405.37942 299360.935  0.01%     -    0s
H    0     0                    299362.17621 299360.935  0.00%     -    0s

Explored 0 nodes (1103 simplex iterations) in 0.06 seconds
Thread count was 4 (of 4 available processors)

Optimal solution found (tolerance 1.00e-04)
Best objective 2.993621762053e+05, best bound 2.993609348906e+05, gap 0.0004%

Gurobi 6.5.2 (win64) logging started 11/03/16 22:12:39

Optimize a model with 1110 rows, 3300 columns and 6600 nonzeros
Coefficient statistics:
  Matrix range    [1e+00, 3e+02]
  Objective range [2e+02, 8e+02]
  Bounds range    [1e+00, 1e+00]
  RHS range       [1e+00, 1e+04]
Found heuristic solution: objective 373019
Presolve time: 0.01s
Presolved: 1110 rows, 3300 columns, 6600 nonzeros
Variable types: 0 continuous, 3300 integer (3300 binary)

Root relaxation: objective 2.993609e+05, 1103 iterations, 0.00 seconds

    Nodes    |    Current Node    |     Objective Bounds      |     Work
 Expl Unexpl |  Obj  Depth IntInf | Incumbent    BestBd   Gap | It/Node Time

     0     0 299360.935    0    4 373019.298 299360.935  19.7%     -    0s
H    0     0                    299441.42416 299360.935  0.03%     -    0s
H    0     0                    299362.17621 299360.935  0.00%     -    0s

Explored 0 nodes (1103 simplex iterations) in 0.04 seconds
Thread count was 4 (of 4 available processors)

Optimal solution found (tolerance 1.00e-04)
Best objective 2.993621762053e+05, best bound 2.993609348906e+05, gap 0.0004%

Gurobi 6.5.2 (win64) logging started 11/03/16 22:14:54

Optimize a model with 1110 rows, 4400 columns and 8800 nonzeros
Coefficient statistics:
  Matrix range    [1e+00, 3e+02]
  Objective range [2e+02, 8e+02]
  Bounds range    [1e+00, 1e+00]
  RHS range       [1e+00, 1e+04]
Found heuristic solution: objective 412698
Presolve time: 0.01s
Presolved: 1110 rows, 4400 columns, 8800 nonzeros
Variable types: 0 continuous, 4400 integer (4400 binary)

Root relaxation: objective 2.993609e+05, 1103 iterations, 0.00 seconds

    Nodes    |    Current Node    |     Objective Bounds      |     Work
 Expl Unexpl |  Obj  Depth IntInf | Incumbent    BestBd   Gap | It/Node Time

     0     0 299360.935    0    4 412698.103 299360.935  27.5%     -    0s
H    0     0                    299435.33225 299360.935  0.02%     -    0s
H    0     0                    299362.17621 299360.935  0.00%     -    0s

Explored 0 nodes (1103 simplex iterations) in 0.05 seconds
Thread count was 4 (of 4 available processors)

Optimal solution found (tolerance 1.00e-04)
Best objective 2.993621762053e+05, best bound 2.993609348906e+05, gap 0.0004%

Gurobi 6.5.2 (win64) logging started 11/03/16 22:15:18

Optimize a model with 1110 rows, 4400 columns and 8800 nonzeros
Coefficient statistics:
  Matrix range    [1e+00, 3e+02]
  Objective range [2e+02, 8e+02]
  Bounds range    [1e+00, 1e+00]
  RHS range       [1e+00, 1e+04]
Found heuristic solution: objective 412698
Presolve time: 0.01s
Presolved: 1110 rows, 4400 columns, 8800 nonzeros
Variable types: 0 continuous, 4400 integer (4400 binary)

Root relaxation: objective 2.993609e+05, 1103 iterations, 0.00 seconds

    Nodes    |    Current Node    |     Objective Bounds      |     Work
 Expl Unexpl |  Obj  Depth IntInf | Incumbent    BestBd   Gap | It/Node Time

     0     0 299360.935    0    4 412698.103 299360.935  27.5%     -    0s
H    0     0                    299435.33225 299360.935  0.02%     -    0s
H    0     0                    299362.17621 299360.935  0.00%     -    0s

Explored 0 nodes (1103 simplex iterations) in 0.04 seconds
Thread count was 4 (of 4 available processors)

Optimal solution found (tolerance 1.00e-04)
Best objective 2.993621762053e+05, best bound 2.993609348906e+05, gap 0.0004%

Gurobi 6.5.2 (win64) logging started 11/03/16 22:15:43

Optimize a model with 1110 rows, 4400 columns and 8800 nonzeros
Coefficient statistics:
  Matrix range    [1e+00, 3e+02]
  Objective range [2e+02, 8e+02]
  Bounds range    [1e+00, 1e+00]
  RHS range       [1e+00, 1e+04]
Found heuristic solution: objective 412698
Presolve time: 0.01s
Presolved: 1110 rows, 4400 columns, 8800 nonzeros
Variable types: 0 continuous, 4400 integer (4400 binary)

Root relaxation: objective 2.993609e+05, 1103 iterations, 0.00 seconds

    Nodes    |    Current Node    |     Objective Bounds      |     Work
 Expl Unexpl |  Obj  Depth IntInf | Incumbent    BestBd   Gap | It/Node Time

     0     0 299360.935    0    4 412698.103 299360.935  27.5%     -    0s
H    0     0                    299435.33225 299360.935  0.02%     -    0s
H    0     0                    299362.17621 299360.935  0.00%     -    0s

Explored 0 nodes (1103 simplex iterations) in 0.04 seconds
Thread count was 4 (of 4 available processors)

Optimal solution found (tolerance 1.00e-04)
Best objective 2.993621762053e+05, best bound 2.993609348906e+05, gap 0.0004%

Gurobi 6.5.2 (win64) logging started 11/03/16 22:16:00

Optimize a model with 1110 rows, 11000 columns and 22000 nonzeros
Coefficient statistics:
  Matrix range    [1e+00, 3e+02]
  Objective range [2e+02, 1e+03]
  Bounds range    [1e+00, 1e+00]
  RHS range       [1e+00, 1e+04]
Found heuristic solution: objective 639274
Presolve time: 0.03s
Presolved: 1110 rows, 11000 columns, 22000 nonzeros
Variable types: 0 continuous, 11000 integer (11000 binary)

Root relaxation: objective 2.993609e+05, 1103 iterations, 0.00 seconds

    Nodes    |    Current Node    |     Objective Bounds      |     Work
 Expl Unexpl |  Obj  Depth IntInf | Incumbent    BestBd   Gap | It/Node Time

     0     0 299360.935    0    4 639273.554 299360.935  53.2%     -    0s
H    0     0                    299405.37942 299360.935  0.01%     -    0s
H    0     0                    299362.17621 299360.935  0.00%     -    0s

Explored 0 nodes (1103 simplex iterations) in 0.08 seconds
Thread count was 4 (of 4 available processors)

Optimal solution found (tolerance 1.00e-04)
Best objective 2.993621762053e+05, best bound 2.993609348906e+05, gap 0.0004%

Gurobi 6.5.2 (win64) logging started 11/03/16 22:16:17

Optimize a model with 1110 rows, 11000 columns and 22000 nonzeros
Coefficient statistics:
  Matrix range    [1e+00, 3e+02]
  Objective range [2e+02, 1e+03]
  Bounds range    [1e+00, 1e+00]
  RHS range       [1e+00, 1e+04]
Found heuristic solution: objective 639274
Presolve time: 0.03s
Presolved: 1110 rows, 11000 columns, 22000 nonzeros
Variable types: 0 continuous, 11000 integer (11000 binary)

Root relaxation: objective 2.993609e+05, 1103 iterations, 0.00 seconds

    Nodes    |    Current Node    |     Objective Bounds      |     Work
 Expl Unexpl |  Obj  Depth IntInf | Incumbent    BestBd   Gap | It/Node Time

     0     0 299360.935    0    4 639273.554 299360.935  53.2%     -    0s
H    0     0                    299405.37942 299360.935  0.01%     -    0s
H    0     0                    299362.17621 299360.935  0.00%     -    0s

Explored 0 nodes (1103 simplex iterations) in 0.08 seconds
Thread count was 4 (of 4 available processors)

Optimal solution found (tolerance 1.00e-04)
Best objective 2.993621762053e+05, best bound 2.993609348906e+05, gap 0.0004%

Gurobi 6.5.2 (win64) logging started 11/03/16 22:23:52

Optimize a model with 1110 rows, 11000 columns and 22000 nonzeros
Coefficient statistics:
  Matrix range    [1e+00, 3e+02]
  Objective range [2e+02, 1e+03]
  Bounds range    [1e+00, 1e+00]
  RHS range       [1e+00, 1e+04]
Found heuristic solution: objective 873774
Presolve time: 0.03s
Presolved: 1110 rows, 11000 columns, 22000 nonzeros
Variable types: 0 continuous, 11000 integer (11000 binary)

Root relaxation: objective 3.563609e+05, 1103 iterations, 0.01 seconds

    Nodes    |    Current Node    |     Objective Bounds      |     Work
 Expl Unexpl |  Obj  Depth IntInf | Incumbent    BestBd   Gap | It/Node Time

     0     0 356360.935    0    4 873773.554 356360.935  59.2%     -    0s
H    0     0                    356405.37942 356360.935  0.01%     -    0s
H    0     0                    356362.17621 356360.935  0.00%     -    0s

Explored 0 nodes (1103 simplex iterations) in 0.08 seconds
Thread count was 4 (of 4 available processors)

Optimal solution found (tolerance 1.00e-04)
Best objective 3.563621762053e+05, best bound 3.563609348906e+05, gap 0.0003%

Gurobi 6.5.2 (win64) logging started 11/03/16 22:25:30

Optimize a model with 1110 rows, 11000 columns and 22000 nonzeros
Coefficient statistics:
  Matrix range    [1e+00, 3e+02]
  Objective range [2e+02, 1e+03]
  Bounds range    [1e+00, 1e+00]
  RHS range       [1e+00, 1e+04]
Found heuristic solution: objective 639274
Presolve time: 0.03s
Presolved: 1110 rows, 11000 columns, 22000 nonzeros
Variable types: 0 continuous, 11000 integer (11000 binary)

Root relaxation: objective 2.993609e+05, 1103 iterations, 0.01 seconds

    Nodes    |    Current Node    |     Objective Bounds      |     Work
 Expl Unexpl |  Obj  Depth IntInf | Incumbent    BestBd   Gap | It/Node Time

     0     0 299360.935    0    4 639273.554 299360.935  53.2%     -    0s
H    0     0                    299405.37942 299360.935  0.01%     -    0s
H    0     0                    299362.17621 299360.935  0.00%     -    0s

Explored 0 nodes (1103 simplex iterations) in 0.07 seconds
Thread count was 4 (of 4 available processors)

Optimal solution found (tolerance 1.00e-04)
Best objective 2.993621762053e+05, best bound 2.993609348906e+05, gap 0.0004%

Gurobi 6.5.2 (win64) logging started 11/03/16 22:25:43

Optimize a model with 1110 rows, 3300 columns and 6600 nonzeros
Coefficient statistics:
  Matrix range    [1e+00, 3e+02]
  Objective range [2e+02, 8e+02]
  Bounds range    [1e+00, 1e+00]
  RHS range       [1e+00, 1e+04]
Found heuristic solution: objective 373019
Presolve time: 0.01s
Presolved: 1110 rows, 3300 columns, 6600 nonzeros
Variable types: 0 continuous, 3300 integer (3300 binary)

Root relaxation: objective 2.993609e+05, 1103 iterations, 0.00 seconds

    Nodes    |    Current Node    |     Objective Bounds      |     Work
 Expl Unexpl |  Obj  Depth IntInf | Incumbent    BestBd   Gap | It/Node Time

     0     0 299360.935    0    4 373019.298 299360.935  19.7%     -    0s
H    0     0                    299441.42416 299360.935  0.03%     -    0s
H    0     0                    299362.17621 299360.935  0.00%     -    0s

Explored 0 nodes (1103 simplex iterations) in 0.03 seconds
Thread count was 4 (of 4 available processors)

Optimal solution found (tolerance 1.00e-04)
Best objective 2.993621762053e+05, best bound 2.993609348906e+05, gap 0.0004%
